# Model system
log DRIVER.log

kspace_style    pppm 1.0e-8
neighbor        2.0 bin
neigh_modify    every 1 delay 0 check yes
thermo_style    custom etotal ke pe ebond eangle edihed eimp evdwl ecoul elong temp press vol
thermo_modify   line multi
thermo          1
thermo_modify   flush yes
fix 1 all nvt temp 300 300 100# iso 1.0 1.0 1000.0
fix ssages all ssages

