echo screen
dimension 2
boundary f f p
units lj
atom_style atomic

#specify the box!
region box block -1.5 2.0 -1.5 2.0 -1 1 units box
create_box        1 box

mass * 1.0

pair_style lj/cut 3.0
pair_coeff * * 1.0 1.0 3.0

create_atoms 1 single 0 0 0 units box
group solid type 1

variable random equal 12394876

fix 1 all nve
#Alteration of the diffusion time influences the diffusion constant (1/time)
fix 2 all langevin 1.0 1.0 1.0 ${random}
fix 3 all wall/reflect xlo EDGE xhi EDGE ylo EDGE yhi EDGE 
#include SUBSTRATE_FUNCTIONS

		variable _w01 equal -18.4631620773
		variable _s01 equal 0.3412727171
		variable _c01 equal -0.9790631338

		variable e_01 atom "v__w01 * exp(-((x-v__c01)^2+(y-v__c01)^2)/(2*v__s01^2))"
		variable fx_01 atom "v__w01*((x-v__c01)/(v__s01^2))*exp(-((x-v__c01)^2+(y-v__c01)^2)/(2*v__s01^2))"
		variable fy_01 atom "v__w01*((y-v__c01)/(v__s01^2))*exp(-((x-v__c01)^2+(y-v__c01)^2)/(2*v__s01^2))"
		

		variable _w02 equal -39.8889505555
		variable _s02 equal 0.2420191493
		variable _c02 equal 0.9790631338

		variable e_02 atom "v__w02 * exp(-((x-v__c02)^2+(y-v__c02)^2)/(2*v__s02^2))"
		variable fx_02 atom "v__w02*((x-v__c02)/(v__s02^2))*exp(-((x-v__c02)^2+(y-v__c02)^2)/(2*v__s02^2))"
		variable fy_02 atom "v__w02*((y-v__c02)/(v__s02^2))*exp(-((x-v__c02)^2+(y-v__c02)^2)/(2*v__s02^2))"

		variable _w03 equal 9.8889505555
		variable _s03 equal 0.5
		variable _c03 equal 0.

		variable e_03 atom "v__w03 * exp(-((x-v__c03)^2+(y-v__c03)^2)/(2*v__s03^2))"
		variable fx_03 atom "v__w03*((x-v__c03)/(v__s03^2))*exp(-((x-v__c03)^2+(y-v__c03)^2)/(2*v__s03^2))"
		variable fy_03 atom "v__w03*((y-v__c03)/(v__s03^2))*exp(-((x-v__c03)^2+(y-v__c03)^2)/(2*v__s03^2))"

variable substrate_xforce atom "(v_fx_01+v_fx_02+v_fx_03)"
variable substrate_yforce atom "(v_fy_01+v_fy_02+v_fy_03)"
variable substrate_energy atom "(v_e_01+v_e_02+v_e_03)"


fix  4 all addforce v_substrate_xforce v_substrate_yforce 0 energy v_substrate_energy
fix  5 all ssages

compute ffx all reduce sum v_substrate_xforce
compute ffy all reduce sum v_substrate_yforce
compute ee all reduce sum v_substrate_energy
compute xxa all property/atom x
compute xx all reduce sum c_xxa
compute yya all property/atom y
compute yy all reduce sum c_yya

timestep 0.001
thermo_style custom step temp ke pe etotal c_xx c_yy c_ffx c_ffy c_ee press
thermo 1


run 2000000
