# ADP
units 			real
atom_style 		full
boundary		p p p
pair_style		lj/cut/coul/cut 12.0
dielectric		1.0
pair_modify		tail yes mix geometric
bond_style		harmonic
angle_style		harmonic
dihedral_style	harmonic
kspace_style	none
neighbor		2.0 bin
neigh_modify	every 1 delay 0 check yes
read_data		data.input
group			mobile union all
velocity all create 300 100
thermo_style	custom etotal ke pe ebond eangle edihed eimp evdwl ecoul elong temp press vol
thermo_modify	line multi
thermo			1000
thermo_modify	flush yes
timestep		1
fix 1 all nvt temp 300 300 100
fix ssages all ssages
run 100000000

