# Model system
units           real
atom_style      full
boundary        p p p
pair_style      lj/cut/coul/long 12.0
dielectric      1.0
pair_modify     tail yes mix geometric
bond_style      harmonic
angle_style     harmonic
dihedral_style  opls
kspace_style    pppm 1.0e-8
special_bonds   lj/coul 0.0 0.0 0.5
neighbor        2.0 bin
neigh_modify    every 1 delay 0 check yes
read_data       Butane_VMD.data
group           mobile union all
timestep        1
thermo_style    custom etotal ke pe ebond eangle edihed eimp evdwl ecoul elong temp press vol
thermo_modify   line multi
thermo          1
thermo_modify   flush yes
timestep 1
velocity all create ptemp 4928459 rot yes dist gaussian
fix 1 all nvt temp ptemp ptemp 100# iso 1.0 1.0 1000.0
fix ssages all ssages

