# ADP
units 			real
atom_style 		full
boundary		p p p
pair_style		lj/cut/coul/cut 12.0
dielectric		1.0
pair_modify		tail yes mix geometric
bond_style		harmonic
angle_style		harmonic
dihedral_style	harmonic
read_data		data.input
group			mobile union all
timestep		1.0
#RESTART
kspace_style	none
#special_bonds	lj/coul 0.0 0.0 0.5
neighbor		2.0 bin
neigh_modify	every 1 delay 0 check yes
velocity all create 300 100
thermo_style	custom etotal ke pe ebond eangle edihed eimp evdwl ecoul elong temp press vol
thermo_modify	line multi
thermo			1
thermo_modify	flush yes
timestep		1
fix 1 all nvt temp 300 300 100
fix ssages all ssages

#dump myDump all xyz 100 dump_SEED.xyz
